outputs/case_272.model.txt
shareholders_meeting_resolution = False
dissolution_application_submitted = False
authority_approval = False
license_revoked_flag = False
derivative_operation_system_established = True
internal_control_system_established = True
derivative_operation_system_executed = True
internal_handling_system_established = True
internal_handling_system_executed = True
internal_control_system_executed = True
internal_operation_system_executed = True
internal_operation_system_established = True
license_revoked = False
internal_derivative_operation_established = True
internal_handling_established = True
dissolution_approved = False
internal_derivative_operation_compliance = True
internal_derivative_operation_executed = True
internal_handling_compliance = True
internal_operation_compliance = True
internal_systems_compliance = True
internal_control_executed = True
internal_control_compliance = True
penalty = False
internal_control_established = True
internal_handling_executed = True
internal_operation_established = True
internal_operation_executed = True